c description: Tseitin formula on , with even charge
c generator: CNFgen (0.9.0)
c copyright: (C) 2012-2020 Massimo Lauria <massimo.lauria@uniroma1.it>
c url: https://massimolauria.net/cnfgen
c
p cnf 20 88
1 2 3 -4 0
1 2 -3 4 0
1 -2 3 4 0
1 -2 -3 -4 0
-1 2 3 4 0
-1 2 -3 -4 0
-1 -2 3 -4 0
-1 -2 -3 4 0
5 6 -7 0
5 -6 7 0
-5 6 7 0
-5 -6 -7 0
8 9 10 -11 0
8 9 -10 11 0
8 -9 10 11 0
8 -9 -10 -11 0
-8 9 10 11 0
-8 9 -10 -11 0
-8 -9 10 -11 0
-8 -9 -10 11 0
1 12 13 -14 0
1 12 -13 14 0
1 -12 13 14 0
1 -12 -13 -14 0
-1 12 13 14 0
-1 12 -13 -14 0
-1 -12 13 -14 0
-1 -12 -13 14 0
5 15 -16 0
5 -15 16 0
-5 15 16 0
-5 -15 -16 0
6 8 15 17 -18 0
6 8 15 -17 18 0
6 8 -15 17 18 0
6 8 -15 -17 -18 0
6 -8 15 17 18 0
6 -8 15 -17 -18 0
6 -8 -15 17 -18 0
6 -8 -15 -17 18 0
-6 8 15 17 18 0
-6 8 15 -17 -18 0
-6 8 -15 17 -18 0
-6 8 -15 -17 18 0
-6 -8 15 17 -18 0
-6 -8 15 -17 18 0
-6 -8 -15 17 18 0
-6 -8 -15 -17 -18 0
2 16 19 -20 0
2 16 -19 20 0
2 -16 19 20 0
2 -16 -19 -20 0
-2 16 19 20 0
-2 16 -19 -20 0
-2 -16 19 -20 0
-2 -16 -19 20 0
3 9 12 -17 0
3 9 -12 17 0
3 -9 12 17 0
3 -9 -12 -17 0
-3 9 12 17 0
-3 9 -12 -17 0
-3 -9 12 -17 0
-3 -9 -12 17 0
7 10 13 18 -19 0
7 10 13 -18 19 0
7 10 -13 18 19 0
7 10 -13 -18 -19 0
7 -10 13 18 19 0
7 -10 13 -18 -19 0
7 -10 -13 18 -19 0
7 -10 -13 -18 19 0
-7 10 13 18 19 0
-7 10 13 -18 -19 0
-7 10 -13 18 -19 0
-7 10 -13 -18 19 0
-7 -10 13 18 -19 0
-7 -10 13 -18 19 0
-7 -10 -13 18 19 0
-7 -10 -13 -18 -19 0
4 11 14 -20 0
4 11 -14 20 0
4 -11 14 20 0
4 -11 -14 -20 0
-4 11 14 20 0
-4 11 -14 -20 0
-4 -11 14 -20 0
-4 -11 -14 20 0